p cnf 41 118
a 24 6 0
e 1 2 3 4 5 7 8 9 10 11 12 13 14 15 16 17 18 19 20 21 22 23 25 26 27 28 29 30 31 32 33 34 35 36 37 38 39 40 41 0
2 1 0
2 -1 0
4 2 0
4 3 0
-2 -3 -4 0
2 -4 -5 0
-2 4 -5 0
2 4 5 0
-2 -4 5 0
-6 -7 -8 0
6 7 -8 0
-6 7 8 0
6 -7 8 0
-10 -8 0
-10 9 0
8 -9 10 0
12 11 0
12 9 0
-11 -9 -12 0
-13 12 0
-13 -11 0
-12 11 13 0
14 -10 0
14 13 0
10 -13 -14 0
-5 -14 -15 0
5 14 -15 0
-5 14 15 0
5 -14 15 0
-7 8 -16 0
7 -8 -16 0
-7 -8 16 0
7 8 16 0
18 11 0
18 17 0
-11 -17 -18 0
1 -17 -19 0
-1 17 -19 0
1 17 19 0
-1 -17 19 0
20 -18 0
20 -19 0
18 19 -20 0
-21 16 0
-21 20 0
-16 -20 21 0
1 22 -23 0
-1 -22 -23 0
1 -22 23 0
-1 22 23 0
-21 -23 -24 0
21 23 -24 0
-21 23 24 0
21 -23 24 0
25 -12 0
25 -7 0
12 7 -25 0
-26 16 0
-26 8 0
-16 -8 26 0
25 -26 -27 0
-25 26 -27 0
25 26 27 0
-25 -26 27 0
28 24 0
28 -27 0
-24 27 -28 0
-12 -29 -30 0
12 29 -30 0
-12 29 30 0
12 -29 30 0
-11 30 -31 0
11 -30 -31 0
-11 -30 31 0
11 30 31 0
32 3 0
32 -6 0
-3 6 -32 0
-33 1 0
-33 16 0
-1 -16 33 0
32 33 -34 0
-32 -33 -34 0
32 -33 34 0
-32 33 34 0
31 34 -35 0
-31 -34 -35 0
31 -34 35 0
-31 34 35 0
36 -19 0
36 19 0
-38 -36 0
-38 -37 0
36 37 38 0
-35 38 -39 0
35 -38 -39 0
-35 -38 39 0
35 38 39 0
-28 -39 -40 0
28 39 -40 0
-28 39 40 0
28 -39 40 0
-15 40 -41 0
15 -40 -41 0
-15 -40 41 0
15 40 41 0
38 -17 9 -36 -5 -7 18 0
40 8 -27 -36 -6 33 21 0
-4 -22 -34 -39 -14 9 -24 -36 0
39 20 33 0
-2 -14 29 -9 0
-28 15 -9 8 0
26 9 37 -18 -21 -33 22 0
-5 17 15 41 -19 0
-23 11 -36 37 -27 25 -8 0
-24 40 -23 -20 -22 21 5 0
-20 27 36 0
41 0
